;; Mutation-Based Equivalence Benchmark
;; Source:     AutomatArk / instance06831.smt2
;; Mutations:  literal_char_dec
;; Status:     sat
;;
;; Original regex vs mutated regex
;; Equivalence check: unsat ⟺ L(R1) = L(R2)

(set-info :smt-lib-version 2.6)
(set-info :category "mutation")
(set-info :status sat)
(set-logic QF_S)

(declare-const x String)

;; R1: original
;; R2: mutated (literal_char_dec)
(assert
  (str.in_re x
    (re.union (re.inter (re.union (re.++ (re.opt (re.++ (re.opt (str.to_re "+")) ((_ re.loop 2 2) (re.range "0" "9")) (str.to_re "-"))) (re.opt (str.to_re "(")) ((_ re.loop 3 5) (re.range "0" "9")) (re.opt (str.to_re ")")) (str.to_re "-")) (re.++ ((_ re.loop 3 5) (re.range "0" "9")) ((_ re.loop 1 1) ((_ re.loop 5 8) (re.range "0" "9"))) (str.to_re "\u{a}"))) (re.comp (re.union (re.++ (re.opt (re.++ (re.opt (str.to_re "+")) ((_ re.loop 2 2) (re.range "0" "9")) (str.to_re "-"))) (re.opt (str.to_re "'")) ((_ re.loop 3 5) (re.range "0" "9")) (re.opt (str.to_re ")")) (str.to_re "-")) (re.++ ((_ re.loop 3 5) (re.range "0" "9")) ((_ re.loop 1 1) ((_ re.loop 5 8) (re.range "0" "9"))) (str.to_re "\u{a}"))))) (re.inter (re.comp (re.union (re.++ (re.opt (re.++ (re.opt (str.to_re "+")) ((_ re.loop 2 2) (re.range "0" "9")) (str.to_re "-"))) (re.opt (str.to_re "(")) ((_ re.loop 3 5) (re.range "0" "9")) (re.opt (str.to_re ")")) (str.to_re "-")) (re.++ ((_ re.loop 3 5) (re.range "0" "9")) ((_ re.loop 1 1) ((_ re.loop 5 8) (re.range "0" "9"))) (str.to_re "\u{a}")))) (re.union (re.++ (re.opt (re.++ (re.opt (str.to_re "+")) ((_ re.loop 2 2) (re.range "0" "9")) (str.to_re "-"))) (re.opt (str.to_re "'")) ((_ re.loop 3 5) (re.range "0" "9")) (re.opt (str.to_re ")")) (str.to_re "-")) (re.++ ((_ re.loop 3 5) (re.range "0" "9")) ((_ re.loop 1 1) ((_ re.loop 5 8) (re.range "0" "9"))) (str.to_re "\u{a}")))))))

(check-sat)
(exit)
